10755.0
0 1 0 1 1 1 1 1 1 1 
7 7 7 7 7 7 7 7 3 4 4 4 3 4 4 4 4 5 5 8 8 3 3 8 3 5 8 9 5 9 5 9 9 8 6 6 6 6 6 6 6 6 6 6 7 7 4 8 5 1 5 3 4 6 7 5 3 3 4 4 6 9 5 9 3 8 9 6 4 7 9 6 4 3 3 5 3 4 7 9 6 3 3 5 5 3 3 7 3 3 5 9 9 1 5 1 3 4 3 7 